benchmarks_CP/INST_36x36/55/inst36x36_55_84.dzn
S=6;
start=[|
-1,	35,	18,	7,	-1,	-1,	-1,	-1,	-1,	6,	-1,	-1,	-1,	26,	24,	23,	16,	29,	11,	-1,	25,	13,	30,	12,	8,	-1,	-1,	32,	28,	-1,	-1,	14,	10,	20,	-1,	-1|
36,	-1,	16,	10,	-1,	20,	-1,	8,	7,	15,	34,	33,	-1,	-1,	-1,	27,	-1,	12,	-1,	-1,	-1,	-1,	-1,	22,	17,	3,	29,	30,	2,	35,	-1,	6,	24,	-1,	13,	25|
24,	30,	-1,	-1,	-1,	-1,	-1,	16,	13,	-1,	-1,	11,	1,	-1,	36,	15,	-1,	-1,	17,	34,	-1,	33,	23,	14,	-1,	31,	-1,	27,	-1,	-1,	-1,	-1,	7,	-1,	28,	-1|
31,	-1,	29,	3,	19,	-1,	-1,	32,	-1,	24,	28,	20,	-1,	7,	5,	2,	-1,	-1,	6,	10,	27,	-1,	26,	-1,	-1,	-1,	1,	23,	-1,	-1,	-1,	18,	-1,	-1,	22,	4|
-1,	27,	5,	26,	32,	-1,	18,	1,	10,	29,	14,	35,	17,	25,	-1,	6,	-1,	34,	-1,	16,	-1,	3,	36,	-1,	-1,	-1,	-1,	24,	-1,	7,	-1,	-1,	31,	-1,	-1,	2|
-1,	-1,	15,	-1,	-1,	-1,	-1,	21,	-1,	-1,	36,	31,	-1,	-1,	35,	19,	-1,	-1,	20,	-1,	-1,	2,	-1,	24,	5,	-1,	22,	26,	4,	-1,	-1,	23,	16,	-1,	-1,	-1|
22,	4,	-1,	25,	-1,	12,	24,	-1,	-1,	7,	2,	17,	16,	-1,	34,	-1,	5,	13,	-1,	9,	33,	6,	-1,	-1,	-1,	21,	-1,	-1,	-1,	-1,	-1,	15,	-1,	-1,	8,	20|
14,	-1,	-1,	29,	33,	-1,	-1,	-1,	36,	27,	-1,	-1,	-1,	-1,	-1,	11,	30,	-1,	34,	7,	3,	19,	-1,	20,	16,	8,	15,	1,	-1,	-1,	10,	4,	-1,	-1,	-1,	22|
27,	-1,	19,	13,	-1,	-1,	15,	4,	-1,	-1,	25,	-1,	-1,	-1,	-1,	-1,	-1,	2,	-1,	21,	11,	-1,	-1,	-1,	22,	33,	-1,	-1,	-1,	-1,	-1,	3,	34,	29,	18,	-1|
26,	34,	28,	-1,	7,	5,	21,	29,	-1,	-1,	32,	18,	-1,	-1,	4,	1,	-1,	31,	-1,	-1,	23,	35,	14,	17,	3,	11,	-1,	36,	-1,	24,	-1,	-1,	33,	16,	-1,	-1|
-1,	8,	31,	-1,	23,	32,	12,	-1,	-1,	-1,	33,	34,	14,	27,	3,	7,	-1,	28,	-1,	15,	-1,	-1,	16,	-1,	-1,	-1,	-1,	19,	13,	-1,	-1,	11,	-1,	21,	-1,	6|
1,	-1,	-1,	20,	35,	-1,	-1,	26,	11,	-1,	-1,	5,	-1,	8,	6,	22,	33,	21,	-1,	-1,	-1,	-1,	31,	-1,	34,	30,	9,	29,	7,	14,	24,	-1,	17,	28,	32,	12|
-1,	15,	22,	12,	1,	21,	-1,	-1,	3,	28,	29,	23,	-1,	-1,	-1,	-1,	-1,	8,	-1,	-1,	26,	-1,	-1,	19,	7,	-1,	-1,	33,	-1,	36,	4,	31,	-1,	24,	20,	17|
-1,	-1,	-1,	-1,	-1,	10,	-1,	35,	1,	-1,	-1,	12,	6,	-1,	-1,	34,	25,	9,	-1,	-1,	7,	-1,	27,	29,	20,	-1,	16,	-1,	-1,	15,	32,	-1,	19,	-1,	-1,	5|
-1,	-1,	33,	31,	-1,	30,	34,	-1,	2,	-1,	4,	-1,	32,	21,	-1,	35,	15,	10,	9,	20,	-1,	5,	-1,	6,	24,	28,	19,	13,	14,	29,	-1,	-1,	11,	8,	12,	-1|
18,	-1,	25,	-1,	-1,	-1,	-1,	30,	20,	10,	24,	21,	-1,	-1,	2,	-1,	19,	16,	-1,	11,	-1,	1,	13,	33,	4,	35,	-1,	3,	17,	27,	28,	-1,	15,	7,	14,	9|
7,	-1,	-1,	-1,	-1,	-1,	17,	-1,	-1,	13,	9,	19,	3,	-1,	27,	33,	-1,	18,	-1,	12,	2,	14,	4,	25,	30,	-1,	-1,	11,	5,	-1,	22,	34,	-1,	-1,	-1,	-1|
11,	14,	-1,	19,	36,	-1,	-1,	33,	-1,	18,	-1,	25,	-1,	-1,	-1,	28,	4,	17,	32,	-1,	15,	22,	10,	30,	1,	26,	12,	34,	-1,	2,	6,	-1,	27,	35,	-1,	3|
33,	-1,	30,	27,	-1,	-1,	8,	17,	18,	34,	10,	24,	15,	-1,	25,	12,	35,	7,	-1,	-1,	-1,	31,	29,	-1,	-1,	20,	-1,	16,	9,	22,	-1,	-1,	28,	6,	-1,	-1|
17,	13,	-1,	16,	-1,	8,	33,	-1,	-1,	21,	-1,	9,	34,	-1,	-1,	3,	36,	6,	-1,	-1,	12,	4,	32,	-1,	19,	5,	25,	15,	26,	-1,	23,	30,	22,	31,	-1,	-1|
20,	31,	1,	-1,	15,	9,	-1,	28,	-1,	3,	-1,	26,	-1,	17,	-1,	-1,	2,	4,	16,	13,	8,	18,	19,	35,	-1,	-1,	7,	12,	33,	-1,	14,	24,	5,	-1,	-1,	-1|
-1,	-1,	-1,	-1,	26,	-1,	-1,	14,	15,	-1,	13,	-1,	29,	30,	-1,	21,	-1,	5,	33,	6,	22,	-1,	-1,	-1,	23,	-1,	-1,	2,	3,	-1,	-1,	-1,	-1,	9,	16,	-1|
19,	22,	-1,	24,	-1,	3,	-1,	-1,	-1,	25,	-1,	-1,	-1,	18,	-1,	9,	-1,	1,	-1,	30,	-1,	-1,	17,	-1,	-1,	27,	-1,	10,	-1,	-1,	33,	-1,	20,	-1,	26,	29|
-1,	-1,	-1,	11,	25,	14,	-1,	-1,	35,	-1,	-1,	6,	28,	-1,	-1,	16,	13,	26,	-1,	1,	20,	-1,	9,	10,	-1,	32,	-1,	8,	30,	18,	15,	19,	-1,	-1,	-1,	34|
25,	-1,	2,	9,	20,	-1,	-1,	18,	-1,	12,	3,	8,	4,	34,	-1,	17,	-1,	35,	22,	36,	-1,	-1,	-1,	-1,	-1,	19,	32,	14,	-1,	-1,	-1,	-1,	21,	10,	31,	-1|
4,	19,	11,	-1,	-1,	-1,	1,	-1,	17,	-1,	30,	-1,	-1,	10,	32,	8,	-1,	-1,	-1,	-1,	13,	-1,	2,	-1,	-1,	25,	34,	-1,	-1,	23,	5,	-1,	6,	-1,	-1,	-1|
-1,	16,	8,	-1,	-1,	7,	-1,	25,	19,	-1,	-1,	-1,	-1,	14,	-1,	-1,	-1,	27,	-1,	28,	-1,	21,	-1,	3,	13,	-1,	11,	22,	-1,	-1,	34,	-1,	18,	32,	-1,	33|
35,	12,	32,	33,	10,	-1,	28,	13,	-1,	4,	21,	-1,	-1,	-1,	-1,	-1,	-1,	-1,	26,	-1,	1,	29,	20,	23,	-1,	-1,	3,	-1,	-1,	-1,	25,	8,	-1,	17,	-1,	24|
-1,	5,	-1,	23,	-1,	-1,	27,	6,	-1,	26,	-1,	10,	9,	29,	19,	30,	28,	36,	8,	-1,	32,	-1,	-1,	-1,	33,	-1,	-1,	7,	35,	-1,	-1,	22,	-1,	12,	2,	-1|
-1,	26,	24,	14,	-1,	-1,	7,	36,	31,	11,	5,	32,	33,	-1,	-1,	25,	-1,	22,	-1,	19,	-1,	34,	15,	9,	12,	-1,	27,	-1,	-1,	16,	1,	-1,	3,	-1,	-1,	-1|
12,	7,	27,	28,	-1,	-1,	-1,	10,	-1,	1,	18,	3,	2,	6,	-1,	4,	32,	19,	13,	-1,	-1,	23,	-1,	-1,	14,	15,	21,	-1,	-1,	-1,	20,	-1,	8,	-1,	17,	-1|
29,	9,	14,	36,	-1,	1,	-1,	-1,	27,	-1,	-1,	15,	7,	-1,	-1,	24,	-1,	3,	-1,	18,	-1,	-1,	-1,	-1,	2,	16,	-1,	25,	-1,	-1,	-1,	28,	32,	13,	6,	-1|
5,	-1,	26,	-1,	16,	-1,	31,	-1,	-1,	-1,	8,	14,	-1,	35,	33,	13,	-1,	-1,	28,	-1,	-1,	7,	1,	21,	29,	24,	-1,	20,	19,	-1,	-1,	-1,	-1,	22,	-1,	15|
-1,	-1,	4,	-1,	-1,	19,	-1,	24,	-1,	-1,	22,	-1,	-1,	36,	28,	26,	-1,	-1,	-1,	25,	9,	-1,	12,	-1,	-1,	-1,	13,	35,	31,	-1,	16,	33,	23,	14,	1,	27|
8,	33,	20,	35,	-1,	11,	-1,	-1,	-1,	-1,	23,	-1,	25,	-1,	15,	-1,	-1,	-1,	-1,	-1,	-1,	10,	22,	36,	-1,	6,	5,	18,	1,	-1,	21,	12,	29,	3,	4,	-1|
-1,	10,	-1,	15,	-1,	-1,	-1,	34,	-1,	-1,	-1,	-1,	22,	1,	9,	20,	17,	-1,	29,	26,	19,	27,	35,	-1,	32,	36,	-1,	-1,	12,	8,	31,	5,	25,	-1,	24,	11|];
